solutions/Insertion/cheapest/E-n76-k10.txt
[[[75], [75, 68], [75, 6, 68], [75, 6, 2, 68], [75, 6, 2, 30, 68], [75, 6, 2, 74, 30, 68], [75, 6, 2, 74, 30, 4, 68], [75, 6, 2, 74, 30, 4, 68]], [[67], [67, 26], [67, 17, 26], [67, 51, 17, 26], [67, 51, 40, 17, 26], [67, 51, 40, 12, 17, 26], [67, 51, 40, 12, 17, 26]], [[34], [34, 46], [34, 46, 52], [34, 46, 52, 27], [34, 46, 52, 27, 45], [34, 46, 52, 27, 29, 45], [34, 46, 52, 27, 29, 48, 45], [34, 46, 52, 27, 29, 48, 45]], [[7], [7, 8], [7, 8, 35], [7, 8, 35, 53], [7, 8, 35, 53, 14], [7, 8, 35, 53, 14, 19], [7, 8, 35, 53, 14, 19]], [[33], [33, 73], [33, 73, 1], [33, 73, 1, 63], [33, 73, 1, 63, 16], [33, 73, 1, 63, 16, 3], [33, 73, 1, 63, 16, 3, 44], [33, 73, 1, 63, 16, 3, 32, 44], [33, 73, 1, 63, 16, 3, 32, 44]], [[58], [58, 72], [58, 72, 10], [58, 72, 10, 38], [58, 72, 10, 38, 65], [58, 72, 10, 38, 65, 11], [58, 72, 10, 38, 65, 11]], [[39], [39, 9], [39, 9, 25], [39, 9, 25, 50], [39, 9, 25, 50, 18], [39, 9, 25, 50, 18, 55], [39, 9, 25, 50, 18, 55, 31], [39, 9, 25, 50, 18, 55, 31]], [[62], [62, 28], [62, 28, 22], [62, 28, 22, 43], [62, 28, 22, 43, 42], [62, 28, 22, 43, 42, 41], [62, 28, 22, 43, 42, 41, 23], [62, 28, 22, 43, 42, 41, 56, 23], [62, 28, 22, 43, 42, 41, 56, 23, 49], [62, 28, 22, 43, 42, 41, 56, 23, 49]], [[13], [13, 54], [13, 54, 57], [13, 54, 57, 15], [13, 54, 57, 15, 5], [13, 54, 57, 15, 5, 37], [13, 54, 57, 15, 5, 37, 20], [13, 54, 57, 15, 5, 37, 70, 20], [13, 54, 57, 15, 5, 37, 60, 70, 20], [13, 54, 57, 15, 5, 37, 60, 71, 70, 20], [13, 54, 57, 15, 5, 37, 60, 71, 70, 20]], [[47], [47, 21], [47, 21, 36], [47, 21, 36, 69], [47, 21, 36, 69, 61], [47, 21, 36, 69, 61, 64], [47, 21, 36, 69, 61, 24, 64], [47, 21, 36, 69, 61, 24, 64]], [[66], [66, 59], [66, 59]]]