solutions/Insertion/cheapest/E-n76-k10.sol
Route #1: 75 6 2 74 30 4 68
Route #2: 67 51 40 12 17 26
Route #3: 34 46 52 27 29 48 45
Route #4: 7 8 35 53 14 19
Route #5: 33 73 1 63 16 3 32 44
Route #6: 58 72 10 38 65 11
Route #7: 39 9 25 50 18 55 31
Route #8: 62 28 22 43 42 41 56 23 49
Route #9: 13 54 57 15 5 37 60 71 70 20
Route #10: 47 21 36 69 61 24 64
Route #11: 66 59
cost: 1061
